2 100 966
7 4 4 6 5 4 3 6 5 4
3 4
5 3 8
7 1 9 7
0 40.0 50.0 0.0 0.0 0 1236
2 45.0 68.0 90.0 10.0 0 1127 22 0 0 0 1 0 0 0 1 1 1
3 45.0 70.0 90.0 30.0 0 1125 6 0 1 0 0 0 0 0 0 1 0
4 42.0 66.0 90.0 10.0 0 1129 50 1 0 0 0 0 0 0 0 0 0
5 42.0 68.0 90.0 10.0 727 782 97 0 0 0 0 0 1 0 0 0 0
6 42.0 65.0 90.0 10.0 0 1130 27 0 0 0 0 0 1 0 0 0 0
7 40.0 69.0 90.0 20.0 621 702 31 0 0 0 1 0 0 0 1 1 0
8 40.0 66.0 90.0 20.0 0 1130 2 1 0 0 1 0 1 0 0 0 0
9 38.0 68.0 90.0 20.0 255 324 47 0 0 0 1 0 0 0 0 0 0
10 38.0 70.0 90.0 10.0 534 605 9 1 0 1 1 1 1 0 0 0 1
11 35.0 66.0 90.0 10.0 357 410 17 0 0 0 0 1 0 0 1 0 0
12 35.0 69.0 90.0 10.0 448 505 47 0 1 0 0 0 0 1 0 0 0
13 25.0 85.0 90.0 20.0 0 1107 99 0 0 1 0 0 1 0 0 0 1
14 22.0 75.0 90.0 30.0 30 92 50 1 0 0 0 0 0 0 0 0 0
15 22.0 85.0 90.0 10.0 567 620 81 0 0 0 0 0 1 0 0 1 0
16 20.0 80.0 90.0 40.0 384 429 82 0 0 0 0 1 0 0 1 0 0
17 20.0 85.0 90.0 40.0 475 528 34 0 0 0 0 0 0 0 1 0 0
18 18.0 75.0 90.0 20.0 99 148 69 0 0 1 0 0 0 1 0 0 0
19 15.0 75.0 90.0 20.0 179 254 90 0 0 0 0 0 0 0 0 0 1
20 15.0 80.0 90.0 10.0 278 345 58 0 0 0 0 0 1 0 0 0 0
21 30.0 50.0 90.0 10.0 10 73 55 0 0 0 0 0 0 1 1 0 0
22 30.0 52.0 90.0 20.0 0 1135 2 0 0 1 0 0 0 0 0 1 0
23 28.0 52.0 90.0 20.0 812 883 13 0 0 0 1 0 0 0 0 0 0
24 28.0 55.0 90.0 10.0 732 777 75 0 0 0 0 0 1 0 0 0 0
25 25.0 50.0 90.0 10.0 65 144 91 0 1 1 0 0 0 0 0 0 0
26 25.0 52.0 90.0 40.0 169 224 88 0 0 1 0 1 0 1 1 0 0
27 25.0 55.0 90.0 10.0 0 1130 99 0 1 0 0 0 0 0 0 0 0
28 23.0 52.0 90.0 10.0 261 316 14 0 0 0 0 0 1 1 1 1 1
29 23.0 55.0 90.0 20.0 546 593 38 0 0 0 0 0 1 0 0 1 0
30 20.0 50.0 90.0 10.0 358 405 29 0 0 0 0 0 0 0 0 1 0
31 20.0 55.0 90.0 10.0 449 504 85 0 0 0 0 0 1 0 0 0 0
32 10.0 35.0 90.0 20.0 0 1112 34 0 0 0 0 0 0 0 0 0 1
33 10.0 40.0 90.0 30.0 31 100 91 0 0 0 0 0 0 0 0 0 1
34 8.0 40.0 90.0 40.0 87 158 28 1 0 0 1 0 0 0 0 0 1
35 8.0 45.0 90.0 20.0 0 1113 94 0 0 0 0 0 0 0 0 1 0
36 5.0 35.0 90.0 10.0 283 344 60 0 0 0 0 0 1 0 1 0 0
37 5.0 45.0 90.0 10.0 665 716 61 1 0 0 0 0 1 0 0 0 0
38 2.0 40.0 90.0 20.0 0 1106 71 1 0 0 0 0 0 1 0 0 0
39 0.0 40.0 90.0 30.0 479 522 53 0 0 0 0 0 1 0 0 0 0
40 0.0 45.0 90.0 20.0 567 624 56 0 0 0 0 0 0 1 1 0 1
41 35.0 30.0 90.0 10.0 264 321 33 1 1 0 0 0 0 0 0 0 0
42 35.0 32.0 90.0 10.0 166 235 16 0 0 0 0 0 1 0 0 0 0
43 33.0 32.0 90.0 20.0 68 149 18 1 1 1 0 1 0 0 0 1 0
44 33.0 35.0 90.0 10.0 16 80 75 0 0 0 0 0 0 0 0 0 1
45 32.0 30.0 90.0 10.0 359 412 35 0 0 0 0 0 0 0 0 1 0
46 30.0 30.0 90.0 10.0 541 600 57 0 0 0 0 1 1 1 0 0 0
47 30.0 32.0 90.0 30.0 448 509 88 0 0 0 1 1 0 1 0 0 0
48 30.0 35.0 90.0 10.0 1054 1127 93 0 0 0 0 0 1 1 1 0 1
49 28.0 30.0 90.0 10.0 0 1122 69 0 1 0 1 0 1 0 0 1 0
50 28.0 35.0 90.0 10.0 1001 1066 44 1 0 0 0 1 0 1 0 0 0
51 26.0 32.0 90.0 10.0 0 1123 68 0 0 0 0 0 1 1 1 0 0
52 25.0 30.0 90.0 10.0 725 786 76 0 0 0 0 0 1 0 0 0 0
53 25.0 35.0 90.0 10.0 0 1124 88 1 1 0 0 0 0 0 0 0 0
54 44.0 5.0 90.0 20.0 286 347 34 0 0 0 0 0 0 0 0 0 1
55 42.0 10.0 90.0 40.0 186 257 21 0 1 0 1 0 0 0 0 0 1
56 42.0 15.0 90.0 10.0 95 158 16 0 1 0 1 1 1 0 0 1 0
57 40.0 5.0 90.0 30.0 385 436 15 0 0 0 0 0 0 0 1 0 0
58 40.0 15.0 90.0 40.0 35 87 85 0 1 0 0 0 1 1 0 0 0
59 38.0 5.0 90.0 30.0 471 534 76 0 0 0 0 0 0 0 1 1 0
60 38.0 15.0 90.0 10.0 0 1110 47 0 1 0 0 1 0 0 1 0 0
61 35.0 5.0 90.0 20.0 562 629 45 1 0 0 0 0 0 0 0 0 0
62 50.0 30.0 90.0 10.0 531 610 86 0 1 0 0 1 0 0 1 0 0
63 50.0 35.0 90.0 20.0 262 317 60 0 0 0 0 0 1 0 0 0 0
64 50.0 40.0 90.0 50.0 171 218 9 0 0 0 1 0 0 0 0 0 0
65 48.0 30.0 90.0 10.0 632 693 35 1 1 0 0 1 1 0 0 0 0
66 48.0 40.0 90.0 10.0 76 129 97 0 1 0 0 0 0 1 1 0 0
67 47.0 35.0 90.0 10.0 826 875 35 0 0 0 0 1 1 0 0 1 1
68 47.0 40.0 90.0 10.0 12 77 64 1 0 0 1 0 1 1 0 0 0
69 45.0 30.0 90.0 10.0 734 777 27 1 0 1 1 0 0 0 0 0 0
70 45.0 35.0 90.0 10.0 916 969 62 0 0 0 0 1 1 0 0 1 1
71 95.0 30.0 90.0 30.0 387 456 80 0 0 1 0 0 0 1 1 1 0
72 95.0 35.0 90.0 20.0 293 360 65 0 1 1 0 0 1 0 0 0 0
73 53.0 30.0 90.0 10.0 0 1122 64 0 0 0 0 0 1 0 0 0 0
74 92.0 30.0 90.0 10.0 478 551 56 0 0 0 0 0 0 0 0 1 0
75 53.0 35.0 90.0 50.0 353 412 80 1 0 0 0 1 0 0 0 0 0
76 45.0 65.0 90.0 20.0 0 1130 23 1 0 0 1 1 0 0 0 0 0
77 90.0 35.0 90.0 10.0 203 260 87 1 0 0 0 1 0 0 1 0 0
78 88.0 30.0 90.0 10.0 574 643 28 1 0 0 0 1 1 0 0 0 0
79 88.0 35.0 90.0 20.0 109 170 79 0 0 0 0 0 0 0 1 0 0
80 87.0 30.0 90.0 10.0 668 731 89 0 1 0 1 0 0 0 0 1 0
81 85.0 25.0 90.0 10.0 769 820 60 0 0 0 0 0 1 0 0 0 0
82 85.0 35.0 90.0 30.0 47 124 53 0 0 1 0 0 0 1 0 1 1
83 75.0 55.0 90.0 20.0 0 1110 2 1 0 0 1 1 0 0 1 0 0
84 72.0 55.0 90.0 10.0 0 1113 20 0 0 1 0 0 0 0 0 0 0
85 70.0 58.0 90.0 20.0 458 523 74 0 0 0 0 0 1 0 0 0 1
86 68.0 60.0 90.0 30.0 0 1116 57 0 0 0 1 0 0 0 0 0 0
87 66.0 55.0 90.0 10.0 173 238 63 0 1 0 1 1 0 1 0 0 1
88 65.0 55.0 90.0 20.0 85 144 55 0 1 1 0 0 1 0 0 0 0
89 65.0 60.0 90.0 30.0 645 708 79 0 0 0 0 0 1 0 0 0 0
90 63.0 58.0 90.0 10.0 737 802 53 0 1 0 0 0 0 0 0 0 0
91 60.0 55.0 90.0 10.0 20 84 21 1 1 0 0 0 0 0 0 0 0
92 60.0 60.0 90.0 10.0 0 1123 62 0 0 0 0 0 1 0 0 1 0
93 67.0 85.0 90.0 20.0 368 441 71 1 0 0 0 0 0 0 1 0 0
94 65.0 85.0 90.0 40.0 475 518 54 0 0 1 0 0 0 1 0 1 0
95 65.0 82.0 90.0 10.0 0 1105 81 0 0 0 1 0 0 0 0 1 1
96 62.0 80.0 90.0 30.0 0 1108 3 1 1 0 0 0 1 0 0 0 0
97 60.0 80.0 90.0 10.0 0 1109 0 0 0 0 0 0 0 1 1 1 0
98 60.0 85.0 90.0 30.0 561 622 14 1 0 0 0 0 0 0 0 0 0
99 58.0 75.0 90.0 20.0 0 1115 18 0 0 0 0 0 0 0 0 0 1
100 55.0 80.0 90.0 10.0 743 820 11 1 0 1 0 0 0 1 0 0 0
101 55.0 85.0 90.0 20.0 647 726 97 0 1 0 0 0 0 0 1 1 1